 &CONTROL
                      prefix = 'graphene'
                 calculation = 'bands' ,
                restart_mode = 'from_scratch' ,
                      outdir = '/afs/ir.stanford.edu/users/e/v/evanreed/tmp/' ,
                  pseudo_dir = '/afs/ir.stanford.edu/users/e/v/evanreed/espresso-4.2.1/pseudo/' ,
                     tstress = .true. ,
                     tprnfor = .true. , 
/
 &SYSTEM
                       ibrav = 4,
                   celldm(1) = 4.65,
                   celldm(3) = 4.0,
                         nat = 2,
                        ntyp = 1,
                     ecutwfc = 30.0 ,
                     ecutrho = 300.D0 ,
                        nbnd = 8,
                 occupations = 'smearing' ,
                    smearing = 'gauss' ,
                     degauss = 0.02
 /
 &ELECTRONS
                    conv_thr = 1.D-8 ,
                 mixing_beta = 0.3D0 ,
 /
ATOMIC_SPECIES
    C   12.00000   C.pbe-rrkjus.UPF
ATOMIC_POSITIONS crystal  
C        0.000000000  0.0000   0.000000000
C        0.3333333333    0.6666666667    0.000000000
 K_POINTS crystal
          99
        0.0000000000    0.0000000000    0.0000000000    1.0
        0.0202021212   -0.0101009091    0.0000000000    1.0
        0.0404042424   -0.0202018182    0.0000000000    1.0
        0.0606063636   -0.0303027273    0.0000000000    1.0
        0.0808084848   -0.0404036364    0.0000000000    1.0
        0.1010106061   -0.0505045455    0.0000000000    1.0
        0.1212127273   -0.0606054545    0.0000000000    1.0
        0.1414148485   -0.0707063636    0.0000000000    1.0
        0.1616169697   -0.0808072727    0.0000000000    1.0
        0.1818190909   -0.0909081818    0.0000000000    1.0
        0.2020212121   -0.1010090909    0.0000000000    1.0
        0.2222233333   -0.1111100000    0.0000000000    1.0
        0.2424254545   -0.1212109091    0.0000000000    1.0
        0.2626275758   -0.1313118182    0.0000000000    1.0
        0.2828296970   -0.1414127273    0.0000000000    1.0
        0.3030318182   -0.1515136364    0.0000000000    1.0
        0.3232339394   -0.1616145455    0.0000000000    1.0
        0.3434360606   -0.1717154545    0.0000000000    1.0
        0.3636381818   -0.1818163636    0.0000000000    1.0
        0.3838403030   -0.1919172727    0.0000000000    1.0
        0.4040424242   -0.2020181818    0.0000000000    1.0
        0.4242445455   -0.2121190909    0.0000000000    1.0
        0.4444466667   -0.2222200000    0.0000000000    1.0
        0.4646487879   -0.2323209091    0.0000000000    1.0
        0.4848509091   -0.2424218182    0.0000000000    1.0
        0.5050530303   -0.2525227273    0.0000000000    1.0
        0.5252551515   -0.2626236364    0.0000000000    1.0
        0.5454572727   -0.2727245455    0.0000000000    1.0
        0.5656593939   -0.2828254545    0.0000000000    1.0
        0.5858615152   -0.2929263636    0.0000000000    1.0
        0.6060636364   -0.3030272727    0.0000000000    1.0
        0.6262657576   -0.3131281818    0.0000000000    1.0
        0.6464678788   -0.3232290909    0.0000000000    1.0
        0.6666700000   -0.3333300000    0.0000000000    1.0
        0.6562531250   -0.3124968750    0.0000000000    1.0
        0.6458362500   -0.2916637500    0.0000000000    1.0
        0.6354193750   -0.2708306250    0.0000000000    1.0
        0.6250025000   -0.2499975000    0.0000000000    1.0
        0.6145856250   -0.2291643750    0.0000000000    1.0
        0.6041687500   -0.2083312500    0.0000000000    1.0
        0.5937518750   -0.1874981250    0.0000000000    1.0
        0.5833350000   -0.1666650000    0.0000000000    1.0
        0.5729181250   -0.1458318750    0.0000000000    1.0
        0.5625012500   -0.1249987500    0.0000000000    1.0
        0.5520843750   -0.1041656250    0.0000000000    1.0
        0.5416675000   -0.0833325000    0.0000000000    1.0
        0.5312506250   -0.0624993750    0.0000000000    1.0
        0.5208337500   -0.0416662500    0.0000000000    1.0
        0.5104168750   -0.0208331250    0.0000000000    1.0
        0.5000000000    0.0000000000    0.0000000000    1.0
        0.4895831250    0.0208331250    0.0000000000    1.0
        0.4791662500    0.0416662500    0.0000000000    1.0
        0.4687493750    0.0624993750    0.0000000000    1.0
        0.4583325000    0.0833325000    0.0000000000    1.0
        0.4479156250    0.1041656250    0.0000000000    1.0
        0.4374987500    0.1249987500    0.0000000000    1.0
        0.4270818750    0.1458318750    0.0000000000    1.0
        0.4166650000    0.1666650000    0.0000000000    1.0
        0.4062481250    0.1874981250    0.0000000000    1.0
        0.3958312500    0.2083312500    0.0000000000    1.0
        0.3854143750    0.2291643750    0.0000000000    1.0
        0.3749975000    0.2499975000    0.0000000000    1.0
        0.3645806250    0.2708306250    0.0000000000    1.0
        0.3541637500    0.2916637500    0.0000000000    1.0
        0.3437468750    0.3124968750    0.0000000000    1.0
        0.3333300000    0.3333300000    0.0000000000    1.0
        0.3232290909    0.3232290909    0.0000000000    1.0
        0.3131281818    0.3131281818    0.0000000000    1.0
        0.3030272727    0.3030272727    0.0000000000    1.0
        0.2929263636    0.2929263636    0.0000000000    1.0
        0.2828254545    0.2828254545    0.0000000000    1.0
        0.2727245455    0.2727245455    0.0000000000    1.0
        0.2626236364    0.2626236364    0.0000000000    1.0
        0.2525227273    0.2525227273    0.0000000000    1.0
        0.2424218182    0.2424218182    0.0000000000    1.0
        0.2323209091    0.2323209091    0.0000000000    1.0
        0.2222200000    0.2222200000    0.0000000000    1.0
        0.2121190909    0.2121190909    0.0000000000    1.0
        0.2020181818    0.2020181818    0.0000000000    1.0
        0.1919172727    0.1919172727    0.0000000000    1.0
        0.1818163636    0.1818163636    0.0000000000    1.0
        0.1717154545    0.1717154545    0.0000000000    1.0
        0.1616145455    0.1616145455    0.0000000000    1.0
        0.1515136364    0.1515136364    0.0000000000    1.0
        0.1414127273    0.1414127273    0.0000000000    1.0
        0.1313118182    0.1313118182    0.0000000000    1.0
        0.1212109091    0.1212109091    0.0000000000    1.0
        0.1111100000    0.1111100000    0.0000000000    1.0
        0.1010090909    0.1010090909    0.0000000000    1.0
        0.0909081818    0.0909081818    0.0000000000    1.0
        0.0808072727    0.0808072727    0.0000000000    1.0
        0.0707063636    0.0707063636    0.0000000000    1.0
        0.0606054545    0.0606054545    0.0000000000    1.0
        0.0505045455    0.0505045455    0.0000000000    1.0
        0.0404036364    0.0404036364    0.0000000000    1.0
        0.0303027273    0.0303027273    0.0000000000    1.0
        0.0202018182    0.0202018182    0.0000000000    1.0
        0.0101009091    0.0101009091    0.0000000000    1.0
        0.0000000000    0.0000000000    0.0000000000    1.0


