 &CONTROL
                      prefix = 'graphene'
                 calculation = 'vc-relax' ,
                restart_mode = 'from_scratch' ,
                      outdir = '/afs/ir.stanford.edu/users/m/i/mitchong/tmp/' ,
                  pseudo_dir = '/afs/ir.stanford.edu/users/m/i/mitchong/programs/espresso-4.2.1/pseudo/' ,
                     tstress = .true. ,
                     tprnfor = .true. ,
 /
 &SYSTEM
                       ibrav = 4,
                   celldm(1) = 4.648728,
                   celldm(3) = 4.065041,
                         nat = 2,
                        ntyp = 1,
                     ecutwfc = 60.D0 ,
                     ecutrho = 300.D0 ,
                        nbnd = 12,
                 occupations = 'smearing' ,
                    smearing = 'gaussian ' ,
                     degauss = 0.02
 /
 &ELECTRONS
                    conv_thr = 1.D-8 ,
                 mixing_beta = 0.3D0 ,
 /
 &IONS
                ion_dynamics = 'bfgs' ,
           pot_extrapolation = 'second_order' ,
           wfc_extrapolation = 'second_order' ,
 /
 &CELL
               cell_dynamics = 'bfgs' ,
              press_conv_thr = 0.2 ,
                 cell_factor = 3.0,
 /
ATOMIC_SPECIES
    C   12.00000  C.pbe-rrkjus.UPF
ATOMIC_POSITIONS angstrom
C        0.000000000  -0.000091168   0.000000000
C        1.231121756   0.710734426   0.000000000
K_POINTS automatic
  16 16 1   0 0 0
